
******************************************************************************
This program contains Ipopt, a library for large-scale nonlinear optimization.
 Ipopt is released as open source code under the Eclipse Public License (EPL).
         For more information visit http://projects.coin-or.org/Ipopt
******************************************************************************

This is Ipopt version 3.12.13, running with linear solver mumps.
NOTE: Other linear solvers might be more efficient (see Ipopt documentation).

Number of nonzeros in equality constraint Jacobian...:      367
Number of nonzeros in inequality constraint Jacobian.:      124
Number of nonzeros in Lagrangian Hessian.............:      145

Total number of variables............................:       86
                     variables with only lower bounds:       16
                variables with lower and upper bounds:       42
                     variables with only upper bounds:        0
Total number of equality constraints.................:       78
Total number of inequality constraints...............:       36
        inequality constraints with only lower bounds:        8
   inequality constraints with lower and upper bounds:        0
        inequality constraints with only upper bounds:       28

iter    objective    inf_pr   inf_du lg(mu)  ||d||  lg(rg) alpha_du alpha_pr  ls
   0  1.0875588e+03 1.73e-04 7.51e+00   0.0 0.00e+00    -  0.00e+00 0.00e+00   0
   1  1.0875583e+03 1.73e-04 2.00e+03  -4.4 5.40e-02   0.0 9.53e-01 5.72e-04h  1
   2  1.0875588e+03 3.92e-12 9.34e+00  -5.8 6.17e-04  -0.5 9.28e-01 1.00e+00h  1
   3  1.0875616e+03 2.28e-09 7.74e+05  -3.0 2.09e+00    -  9.91e-01 3.98e-01f  1
   4  1.0875720e+03 3.16e-08 6.28e+06  -2.7 7.02e-01    -  1.00e+00 1.00e+00f  1
   5  1.0875720e+03 4.68e-12 3.09e+06  -2.7 2.23e-01    -  1.00e+00 1.00e+00h  1
   6  1.0875720e+03 2.69e-12 2.83e+00  -2.7 2.71e-04    -  1.00e+00 1.00e+00h  1
   7  1.0875589e+03 4.83e-08 2.85e+03  -4.8 2.07e-02    -  1.00e+00 1.00e+00f  1
   8  1.0875589e+03 3.64e-12 5.10e+02  -4.9 1.83e-02    -  1.00e+00 1.00e+00h  1
   9  1.0875589e+03 1.64e-12 4.90e-04  -4.9 3.94e-03    -  1.00e+00 1.00e+00h  1
iter    objective    inf_pr   inf_du lg(mu)  ||d||  lg(rg) alpha_du alpha_pr  ls
  10  1.0875588e+03 5.22e-12 2.64e+03  -6.6 2.14e-02    -  9.97e-01 1.00e+00f  1
  11  1.0875588e+03 3.37e-12 1.03e+02  -6.6 3.99e-01    -  1.00e+00 1.00e+00h  1
  12  1.0875588e+03 3.58e-12 2.48e-05  -6.6 1.30e-02    -  1.00e+00 1.00e+00h  1
  13  1.0875588e+03 2.78e-12 2.99e+02  -7.5 1.43e-01    -  9.98e-01 1.00e+00h  1
  14  1.0875588e+03 2.70e-12 5.66e+00  -7.6 1.06e-01    -  1.00e+00 1.00e+00h  1
  15  1.0875588e+03 2.11e-12 2.44e-07  -7.6 2.35e-02    -  1.00e+00 1.00e+00h  1
  16  1.0875588e+03 1.84e-12 1.54e+01  -8.7 6.94e-02    -  9.98e-01 1.00e+00h  1
  17  1.0875588e+03 3.10e-12 9.54e-02  -8.8 3.53e-02    -  1.00e+00 1.00e+00h  1
  18  1.0875588e+03 1.22e-12 1.73e-07  -8.8 1.07e-02    -  1.00e+00 1.00e+00h  1
  19  1.0875588e+03 3.40e-12 3.57e-01 -10.3 2.16e-02    -  1.00e+00 1.00e+00h  1
iter    objective    inf_pr   inf_du lg(mu)  ||d||  lg(rg) alpha_du alpha_pr  ls
  20  1.0875588e+03 2.01e-12 1.89e-05 -10.3 1.05e-02    -  1.00e+00 1.00e+00h  1
  21  1.0875588e+03 3.00e-12 2.13e-03 -11.0 5.94e-03    -  1.00e+00 1.00e+00h  1
  22  1.0875588e+03 3.45e-12 5.61e-10 -11.0 2.58e-03    -  1.00e+00 1.00e+00h  1

Number of Iterations....: 22

                                   (scaled)                 (unscaled)
Objective...............:   4.7151564696339892e+02    1.0875587979456661e+03
Dual infeasibility......:   5.6098077933528626e-10    1.2939116357507972e-09
Constraint violation....:   2.8962825425369804e-14    3.4505731605349865e-12
Complementarity.........:   1.5789850436754435e-11    3.6419556532917137e-11
Overall NLP error.......:   2.5641391805503424e-10    1.2939116357507972e-09


Number of objective function evaluations             = 23
Number of objective gradient evaluations             = 23
Number of equality constraint evaluations            = 23
Number of inequality constraint evaluations          = 23
Number of equality constraint Jacobian evaluations   = 23
Number of inequality constraint Jacobian evaluations = 23
Number of Lagrangian Hessian evaluations             = 22
Total CPU secs in IPOPT (w/o function evaluations)   =      0.014
Total CPU secs in NLP function evaluations           =      0.001

EXIT: Optimal Solution Found.
